50
2 1 5
3 0 9
4 1 6
4 2 7
5 2 9
5 3 5
6 0 2
6 2 3
6 3 8
7 0 10
7 1 2
7 4 2
7 5 2
8 0 2
8 1 7
8 2 9
8 3 10
8 4 6
8 5 6
8 6 2
8 7 4
9 1 8
9 3 7
9 6 3
10 3 6
10 7 3
10 8 6
11 0 1
11 4 3
11 5 1
11 6 6
11 8 1
11 10 2
12 0 9
12 2 6
12 6 2
12 10 9
13 0 5
13 1 8
13 2 2
13 8 7
13 9 5
13 11 2
14 3 8
14 5 5
14 7 8
14 8 9
14 10 8
14 12 1
15 0 6
15 1 1
15 3 9
15 4 8
15 5 10
15 6 8
15 7 6
15 10 3
15 12 10
15 13 9
16 0 9
16 2 10
16 3 2
16 7 5
16 8 2
16 11 2
16 13 4
16 14 2
17 0 7
17 1 2
17 5 5
17 7 2
17 8 9
17 9 2
17 10 7
17 11 3
17 12 6
17 14 10
17 15 7
17 16 8
18 2 4
18 4 10
18 5 7
18 6 3
18 8 7
18 10 9
18 14 6
18 16 9
18 17 2
19 0 2
19 1 2
19 2 2
19 3 8
19 4 8
19 5 6
19 7 4
19 8 9
19 9 7
19 10 8
19 12 8
19 13 1
19 16 3
19 18 1
20 0 10
20 1 8
20 3 5
20 5 4
20 6 9
20 7 9
20 11 4
20 12 8
20 13 2
20 14 8
20 15 4
20 16 10
20 19 9
21 0 1
21 3 3
21 4 3
21 5 4
21 6 3
21 7 6
21 8 5
21 9 4
21 10 3
21 11 6
21 13 5
21 14 4
21 17 5
21 18 8
21 19 3
21 20 2
22 2 5
22 4 3
22 6 2
22 7 4
22 10 5
22 13 7
22 14 2
22 15 10
22 16 9
22 17 7
22 18 8
23 1 10
23 3 10
23 4 9
23 8 9
23 9 3
23 10 9
23 11 4
23 12 8
23 14 1
23 15 8
23 17 5
23 18 10
23 20 8
23 21 10
24 0 7
24 1 6
24 4 9
24 6 10
24 7 5
24 8 2
24 10 2
24 11 3
24 12 2
24 15 6
24 18 9
24 19 9
24 20 8
24 21 8
24 22 9
24 23 8
25 1 6
25 2 9
25 5 6
25 8 6
25 9 10
25 11 10
25 13 3
25 15 4
25 16 7
25 19 10
25 20 10
25 21 9
25 22 8
26 1 10
26 2 5
26 3 3
26 6 2
26 7 6
26 8 3
26 9 3
26 11 1
26 12 10
26 13 8
26 14 4
26 16 10
26 19 8
26 20 6
26 22 9
27 0 2
27 1 4
27 4 2
27 5 5
27 7 1
27 9 3
27 13 2
27 14 3
27 16 9
27 17 5
27 18 5
27 20 4
27 21 6
27 22 1
27 23 6
27 24 7
28 2 7
28 3 7
28 4 2
28 5 5
28 6 8
28 7 8
28 8 8
28 9 3
28 11 7
28 13 10
28 14 1
28 15 8
28 17 6
28 20 1
28 21 8
28 23 2
28 24 9
28 27 4
29 0 7
29 1 5
29 4 10
29 5 7
29 6 5
29 7 3
29 11 4
29 12 4
29 13 8
29 14 7
29 15 6
29 16 7
29 18 5
29 19 5
29 20 9
29 21 6
29 22 1
29 23 9
29 25 7
29 26 8
29 27 2
30 1 6
30 2 4
30 4 6
30 6 6
30 7 1
30 11 9
30 12 8
30 15 1
30 17 8
30 20 2
30 22 3
30 23 1
30 24 7
30 25 9
30 26 9
30 28 3
31 1 4
31 3 2
31 4 2
31 5 2
31 6 4
31 8 10
31 9 2
31 10 4
31 12 1
31 13 3
31 14 6
31 16 4
31 18 3
31 19 5
31 20 9
31 22 8
31 25 3
31 26 3
31 27 2
31 30 9
32 1 4
32 2 9
32 3 7
32 4 9
32 5 4
32 6 7
32 7 8
32 8 9
32 9 4
32 12 6
32 13 7
32 14 4
32 15 8
32 16 7
32 17 9
32 18 1
32 19 4
32 21 5
32 23 3
32 24 2
32 25 1
32 26 7
32 29 5
32 30 1
33 0 7
33 1 10
33 2 3
33 3 10
33 4 8
33 5 4
33 6 8
33 7 6
33 8 4
33 9 1
33 10 4
33 14 8
33 18 10
33 19 3
33 24 2
33 25 5
33 26 2
33 27 3
33 28 10
33 29 7
33 31 10
34 0 9
34 3 3
34 4 10
34 5 3
34 6 10
34 7 5
34 8 7
34 9 1
34 11 10
34 12 10
34 17 4
34 19 2
34 20 7
34 21 6
34 24 1
34 26 3
34 27 8
34 28 4
34 29 8
34 33 4
35 1 9
35 2 4
35 3 4
35 4 9
35 5 10
35 6 10
35 7 2
35 9 9
35 12 1
35 13 3
35 15 2
35 17 10
35 19 8
35 20 3
35 21 6
35 22 1
35 25 4
35 26 6
35 27 9
35 32 3
35 33 2
36 0 4
36 4 9
36 5 6
36 8 9
36 9 3
36 12 5
36 13 4
36 14 7
36 16 2
36 17 6
36 18 8
36 19 4
36 21 1
36 23 5
36 26 6
36 27 10
36 29 1
36 31 7
36 33 8
37 2 3
37 3 9
37 4 5
37 6 2
37 7 9
37 8 4
37 10 8
37 15 7
37 16 10
37 18 9
37 19 1
37 20 1
37 21 6
37 22 2
37 24 4
37 25 6
37 26 4
37 27 6
37 28 7
37 32 2
37 33 4
37 34 7
37 35 3
38 1 10
38 3 1
38 4 7
38 5 8
38 7 1
38 8 4
38 9 8
38 11 8
38 12 10
38 14 7
38 15 5
38 16 9
38 18 1
38 22 7
38 23 5
38 25 8
38 27 9
38 28 3
38 30 6
38 32 1
38 33 5
38 34 2
38 36 2
39 0 7
39 3 5
39 6 7
39 7 6
39 9 7
39 10 7
39 11 1
39 12 8
39 14 4
39 15 6
39 20 5
39 21 4
39 25 7
39 26 3
39 27 9
39 28 8
39 29 1
39 35 6
39 36 6
39 38 10
40 2 7
40 3 6
40 5 10
40 9 3
40 11 6
40 12 3
40 14 4
40 15 3
40 16 2
40 17 2
40 19 1
40 20 5
40 21 2
40 23 1
40 26 8
40 30 8
40 31 2
40 32 9
40 33 4
40 35 1
40 36 5
40 39 6
41 1 10
41 2 8
41 3 9
41 4 10
41 5 1
41 6 3
41 8 2
41 10 2
41 11 2
41 12 8
41 14 5
41 15 5
41 16 10
41 17 5
41 19 4
41 20 8
41 21 6
41 22 7
41 23 6
41 25 2
41 29 1
41 30 2
41 32 8
41 33 4
41 35 7
41 36 9
41 39 8
42 0 7
42 1 2
42 3 10
42 8 1
42 9 7
42 12 3
42 13 8
42 15 2
42 16 6
42 18 2
42 19 9
42 20 8
42 21 3
42 24 8
42 26 5
42 28 6
42 31 9
42 33 6
42 35 3
42 36 3
42 37 6
42 38 10
42 40 3
42 41 5
43 1 2
43 2 4
43 3 5
43 8 3
43 10 7
43 12 2
43 13 2
43 15 6
43 16 3
43 17 3
43 21 8
43 23 6
43 25 7
43 28 5
43 29 4
43 30 8
43 33 4
43 37 3
43 40 10
43 41 3
43 42 1
44 3 10
44 4 5
44 5 4
44 6 10
44 8 4
44 9 4
44 14 10
44 17 5
44 19 6
44 20 1
44 21 10
44 23 6
44 25 9
44 26 9
44 27 3
44 28 3
44 29 4
44 30 8
44 32 9
44 35 4
44 36 2
44 37 7
44 39 8
44 41 6
44 42 1
45 0 1
45 1 9
45 3 8
45 4 9
45 5 3
45 6 7
45 11 1
45 13 4
45 14 2
45 16 1
45 17 2
45 19 3
45 20 4
45 21 3
45 22 4
45 25 6
45 28 7
45 29 10
45 30 3
45 32 8
45 33 6
45 34 6
45 35 4
45 37 10
45 38 7
45 39 9
45 40 1
46 1 2
46 2 2
46 3 10
46 5 8
46 9 5
46 10 7
46 11 9
46 16 6
46 17 7
46 19 3
46 20 5
46 23 2
46 24 10
46 25 2
46 26 1
46 27 7
46 28 7
46 29 8
46 30 5
46 31 8
46 32 3
46 33 1
46 34 7
46 35 7
46 39 5
46 43 4
46 44 10
46 45 3
47 1 3
47 2 1
47 3 1
47 5 5
47 6 4
47 8 7
47 10 5
47 12 4
47 13 3
47 14 9
47 15 6
47 16 2
47 17 3
47 18 9
47 19 1
47 20 1
47 21 2
47 22 3
47 23 5
47 24 2
47 25 3
47 26 4
47 29 4
47 33 4
47 34 6
47 35 1
47 40 4
47 41 1
47 46 6
48 0 7
48 1 6
48 2 8
48 3 6
48 6 4
48 7 4
48 8 7
48 10 3
48 13 10
48 15 3
48 16 10
48 18 1
48 19 5
48 20 4
48 21 7
48 23 9
48 26 5
48 27 5
48 28 10
48 29 8
48 30 7
48 31 1
48 34 2
48 37 3
48 38 2
48 39 8
48 41 10
49 0 9
49 1 5
49 2 4
49 3 9
49 4 6
49 8 8
49 10 8
49 11 8
49 12 5
49 13 3
49 14 8
49 15 2
49 17 7
49 18 4
49 21 2
49 24 6
49 26 10
49 29 5
49 30 10
49 31 6
49 32 8
49 35 3
49 36 10
49 37 9
49 38 6
49 39 7
49 40 5
49 42 8
49 44 7
49 47 6
49 48 7
